clingo version 5.6.2
Reading from ...etition/0030-graph_colouring-135-0.asp ...
Solving...
Answer: 1

SATISFIABLE

Models       : 1+
Calls        : 1
Time         : 13.932s (Solving: 13.74s 1st Model: 13.74s Unsat: 0.00s)
CPU Time     : 13.915s

Choices      : 619297  
Conflicts    : 546764   (Analyzed: 546764)
Restarts     : 1480     (Average: 369.44 Last: 113)
Model-Level  : 26.0    
Problems     : 1        (Average Length: 0.00 Splits: 0)
Lemmas       : 546764   (Deleted: 537702)
  Binary     : 0        (Ratio:   0.00%)
  Ternary    : 4        (Ratio:   0.00%)
  Conflict   : 546764   (Average Length:   43.3 Ratio: 100.00%) 
  Loop       : 0        (Average Length:    0.0 Ratio:   0.00%) 
  Other      : 0        (Average Length:    0.0 Ratio:   0.00%) 
Backjumps    : 546764   (Average:  1.10 Max:  11 Sum: 603199)
  Executed   : 546764   (Average:  1.10 Max:  11 Sum: 603199 Ratio: 100.00%)
  Bounded    : 0        (Average:  0.00 Max:   0 Sum:      0 Ratio:   0.00%)

Rules        : 17940   
Atoms        : 3286    
Bodies       : 1330    
Equivalences : 3925     (Atom=Atom: 23 Body=Body: 655 Other: 3247)
Tight        : Yes
Variables    : 787      (Eliminated:    0 Frozen:    0)
Constraints  : 7039     (Binary:  89.0% Ternary:   0.1% Other:  11.0%)

